227 5
3 3 3 3 3
0  0 0 0 0 0  45 2 7 12 17 22 27 32 37 42 47 52 57 62 67 72 77 82 87 92 97 102 107 112 117 122 127 132 137 142 147 152 157 162 167 172 177 182 187 192 197 202 207 212 217 222
66  0 1 0 0 0  1 3
85  0 0 0 1 0  1 4
84  0 0 1 0 0  1 5
62  1 0 0 0 0  1 6
19  0 0 0 0 1  1 227
59  0 0 0 1 0  1 8
64  0 1 0 0 0  1 9
46  0 0 1 0 0  1 10
13  0 0 0 0 1  1 11
25  1 0 0 0 0  1 227
88  0 0 0 0 1  1 13
80  0 0 0 1 0  1 14
73  0 1 0 0 0  1 15
53  0 0 1 0 0  1 16
41  1 0 0 0 0  1 227
14  1 0 0 0 0  1 18
67  0 1 0 0 0  1 19
57  0 0 1 0 0  1 20
74  0 0 0 1 0  1 21
47  0 0 0 0 1  1 227
84  1 0 0 0 0  1 23
64  0 0 0 0 1  1 24
41  0 0 1 0 0  1 25
84  0 0 0 1 0  1 26
78  0 1 0 0 0  1 227
63  1 0 0 0 0  1 28
28  0 0 0 1 0  1 29
46  0 1 0 0 0  1 30
26  0 0 1 0 0  1 31
52  0 0 0 0 1  1 227
10  0 0 0 1 0  1 33
17  0 0 1 0 0  1 34
73  0 0 0 0 1  1 35
11  0 1 0 0 0  1 36
64  1 0 0 0 0  1 227
67  0 0 1 0 0  1 38
97  0 1 0 0 0  1 39
95  0 0 0 1 0  1 40
38  0 0 0 0 1  1 41
85  1 0 0 0 0  1 227
95  0 0 1 0 0  1 43
46  0 0 0 0 1  1 44
59  1 0 0 0 0  1 45
65  0 1 0 0 0  1 46
93  0 0 0 1 0  1 227
43  0 0 1 0 0  1 48
85  0 0 0 0 1  1 49
32  0 0 0 1 0  1 50
85  0 1 0 0 0  1 51
60  1 0 0 0 0  1 227
49  0 0 0 0 1  1 53
41  0 0 0 1 0  1 54
61  0 0 1 0 0  1 55
66  1 0 0 0 0  1 56
90  0 1 0 0 0  1 227
17  0 1 0 0 0  1 58
23  1 0 0 0 0  1 59
70  0 0 0 1 0  1 60
99  0 0 0 0 1  1 61
49  0 0 1 0 0  1 227
40  0 0 0 0 1  1 63
73  0 0 0 1 0  1 64
73  1 0 0 0 0  1 65
98  0 1 0 0 0  1 66
68  0 0 1 0 0  1 227
57  0 0 0 1 0  1 68
9  0 1 0 0 0  1 69
7  0 0 1 0 0  1 70
13  1 0 0 0 0  1 71
98  0 0 0 0 1  1 227
37  1 0 0 0 0  1 73
85  0 1 0 0 0  1 74
17  0 0 1 0 0  1 75
79  0 0 0 0 1  1 76
41  0 0 0 1 0  1 227
66  0 1 0 0 0  1 78
85  0 0 0 1 0  1 79
84  0 0 1 0 0  1 80
62  1 0 0 0 0  1 81
19  0 0 0 0 1  1 227
59  0 0 0 1 0  1 83
64  0 1 0 0 0  1 84
46  0 0 1 0 0  1 85
13  0 0 0 0 1  1 86
25  1 0 0 0 0  1 227
88  0 0 0 0 1  1 88
80  0 0 0 1 0  1 89
73  0 1 0 0 0  1 90
53  0 0 1 0 0  1 91
41  1 0 0 0 0  1 227
14  1 0 0 0 0  1 93
67  0 1 0 0 0  1 94
57  0 0 1 0 0  1 95
74  0 0 0 1 0  1 96
47  0 0 0 0 1  1 227
84  1 0 0 0 0  1 98
64  0 0 0 0 1  1 99
41  0 0 1 0 0  1 100
84  0 0 0 1 0  1 101
78  0 1 0 0 0  1 227
63  1 0 0 0 0  1 103
28  0 0 0 1 0  1 104
46  0 1 0 0 0  1 105
26  0 0 1 0 0  1 106
52  0 0 0 0 1  1 227
10  0 0 0 1 0  1 108
17  0 0 1 0 0  1 109
73  0 0 0 0 1  1 110
11  0 1 0 0 0  1 111
64  1 0 0 0 0  1 227
67  0 0 1 0 0  1 113
97  0 1 0 0 0  1 114
95  0 0 0 1 0  1 115
38  0 0 0 0 1  1 116
85  1 0 0 0 0  1 227
95  0 0 1 0 0  1 118
46  0 0 0 0 1  1 119
59  1 0 0 0 0  1 120
65  0 1 0 0 0  1 121
93  0 0 0 1 0  1 227
43  0 0 1 0 0  1 123
85  0 0 0 0 1  1 124
32  0 0 0 1 0  1 125
85  0 1 0 0 0  1 126
60  1 0 0 0 0  1 227
49  0 0 0 0 1  1 128
41  0 0 0 1 0  1 129
61  0 0 1 0 0  1 130
66  1 0 0 0 0  1 131
90  0 1 0 0 0  1 227
17  0 1 0 0 0  1 133
23  1 0 0 0 0  1 134
70  0 0 0 1 0  1 135
99  0 0 0 0 1  1 136
49  0 0 1 0 0  1 227
40  0 0 0 0 1  1 138
73  0 0 0 1 0  1 139
73  1 0 0 0 0  1 140
98  0 1 0 0 0  1 141
68  0 0 1 0 0  1 227
57  0 0 0 1 0  1 143
9  0 1 0 0 0  1 144
7  0 0 1 0 0  1 145
13  1 0 0 0 0  1 146
98  0 0 0 0 1  1 227
37  1 0 0 0 0  1 148
85  0 1 0 0 0  1 149
17  0 0 1 0 0  1 150
79  0 0 0 0 1  1 151
41  0 0 0 1 0  1 227
66  0 1 0 0 0  1 153
85  0 0 0 1 0  1 154
84  0 0 1 0 0  1 155
62  1 0 0 0 0  1 156
19  0 0 0 0 1  1 227
59  0 0 0 1 0  1 158
64  0 1 0 0 0  1 159
46  0 0 1 0 0  1 160
13  0 0 0 0 1  1 161
25  1 0 0 0 0  1 227
88  0 0 0 0 1  1 163
80  0 0 0 1 0  1 164
73  0 1 0 0 0  1 165
53  0 0 1 0 0  1 166
41  1 0 0 0 0  1 227
14  1 0 0 0 0  1 168
67  0 1 0 0 0  1 169
57  0 0 1 0 0  1 170
74  0 0 0 1 0  1 171
47  0 0 0 0 1  1 227
84  1 0 0 0 0  1 173
64  0 0 0 0 1  1 174
41  0 0 1 0 0  1 175
84  0 0 0 1 0  1 176
78  0 1 0 0 0  1 227
63  1 0 0 0 0  1 178
28  0 0 0 1 0  1 179
46  0 1 0 0 0  1 180
26  0 0 1 0 0  1 181
52  0 0 0 0 1  1 227
10  0 0 0 1 0  1 183
17  0 0 1 0 0  1 184
73  0 0 0 0 1  1 185
11  0 1 0 0 0  1 186
64  1 0 0 0 0  1 227
67  0 0 1 0 0  1 188
97  0 1 0 0 0  1 189
95  0 0 0 1 0  1 190
38  0 0 0 0 1  1 191
85  1 0 0 0 0  1 227
95  0 0 1 0 0  1 193
46  0 0 0 0 1  1 194
59  1 0 0 0 0  1 195
65  0 1 0 0 0  1 196
93  0 0 0 1 0  1 227
43  0 0 1 0 0  1 198
85  0 0 0 0 1  1 199
32  0 0 0 1 0  1 200
85  0 1 0 0 0  1 201
60  1 0 0 0 0  1 227
49  0 0 0 0 1  1 203
41  0 0 0 1 0  1 204
61  0 0 1 0 0  1 205
66  1 0 0 0 0  1 206
90  0 1 0 0 0  1 227
17  0 1 0 0 0  1 208
23  1 0 0 0 0  1 209
70  0 0 0 1 0  1 210
99  0 0 0 0 1  1 211
49  0 0 1 0 0  1 227
40  0 0 0 0 1  1 213
73  0 0 0 1 0  1 214
73  1 0 0 0 0  1 215
98  0 1 0 0 0  1 216
68  0 0 1 0 0  1 227
57  0 0 0 1 0  1 218
9  0 1 0 0 0  1 219
7  0 0 1 0 0  1 220
13  1 0 0 0 0  1 221
98  0 0 0 0 1  1 227
37  1 0 0 0 0  1 223
85  0 1 0 0 0  1 224
17  0 0 1 0 0  1 225
79  0 0 0 0 1  1 226
41  0 0 0 1 0  1 227
0  0 0 0 0 0  0
